p tw 36 39
1 2
2 13
3 4
3 5
4 29
5 6
6 7
7 8
8 9
9 10
10 11
10 12
11 29
12 14
13 24
14 15
15 16
16 17
17 18
18 19
18 20
19 29
20 21
21 22
22 23
23 25
24 31
24 32
25 26
26 27
27 28
28 29
29 30
31 32
32 33
33 34
34 35
35 36
36 3
